sm_isp_SD0314354-standardized_unitcell-relaxed
   1.00000000000000     
     3.8380000591000001    0.0000000000000000    0.0000000000000000
     0.0000000000000000    3.8380000591000001    0.0000000000000000
     0.0000000000000000    0.0000000000000000    3.8380000591000001
   Sr   V    O 
     1     1     3
Direct
  0.5000000000000000  0.5000000000000000  0.5000000000000000
  0.0000000000000000  0.0000000000000000  0.0000000000000000
  0.5000000000000000  0.0000000000000000  0.0000000000000000
  0.0000000000000000  0.5000000000000000  0.0000000000000000
  0.0000000000000000  0.0000000000000000  0.5000000000000000
 
  0.00000000E+00  0.00000000E+00  0.00000000E+00
  0.00000000E+00  0.00000000E+00  0.00000000E+00
  0.00000000E+00  0.00000000E+00  0.00000000E+00
  0.00000000E+00  0.00000000E+00  0.00000000E+00
  0.00000000E+00  0.00000000E+00  0.00000000E+00
