La3Pt3Bi4
1
    -5.0650000571999998    5.0650000571999998    5.0650000571999998
     5.0650000571999998   -5.0650000571999998    5.0650000571999998
     5.0650000571999998    5.0650000571999998   -5.0650000571999998
    La    Pt    Bi
     6     6     8
D
  0.7499999759999980  0.8749999759999980  0.1250000000000000
  0.6250000109999974  0.3750000349999993  0.2499999759999980
  0.2500000000000000  0.6249999879999990  0.3749999879999990
  0.3749999879999990  0.2500000000000000  0.6249999879999990
  0.8749999759999980  0.1250000000000000  0.7499999759999980
  0.1250000000000000  0.7499999759999980  0.8749999759999980
  0.8749999879999990  0.2499999759999980  0.1249999639999970
  0.1249999639999970  0.8749999879999990  0.2499999759999980
  0.6250000120000010  0.7499999759999980  0.3749999879999990
  0.7500000000000000  0.3750000000000000  0.6250000000000000
  0.3749999879999990  0.6250000120000010  0.7499999759999980
  0.2499999759999980  0.1249999639999970  0.8749999879999990
  0.3262123091910567  0.4999999529999997  0.0000000000000000
  0.8262123221910542  0.4999999890000026  0.0000000000000000
  0.1737876438089430  0.1737876438089430  0.1737876438089430
  0.4999999529999997  0.0000000000000000  0.3262123091910567
  0.0000000000000000  0.3262123091910567  0.4999999529999997
  0.0000000000000000  0.8262123221910542  0.4999999890000026
  0.6737876438089430  0.6737876438089430  0.6737876438089430
  0.4999999890000026  0.0000000000000000  0.8262123221910542
