k233
   1.00000000000
     4.99160000000000   -8.64570481106081    0.00000000000000
     4.99160000000000    8.64570481106081    0.00000000000000
     0.00000000000000    0.00000000000000    4.23040000000000
 K Cr As
 4  6  6
Direct
  0.3333333333333357  0.6666666666666643  0.0000000000000000
  0.5387500000000003  0.0775000000000006  0.5000000000000000
  0.9224999999999994  0.4612499999999997  0.5000000000000000
  0.5387500000000003  0.4612499999999997  0.5000000000000000
  0.8203999999999994  0.9102000000000032  0.0000000000000000
  0.0897999999999968  0.9102000000000032  0.0000000000000000
  0.0897999999999968  0.1796000000000006  0.0000000000000000
  0.9127000000000010  0.0872999999999990  0.5000000000000000
  0.1745999999999981  0.0872999999999990  0.5000000000000000
  0.9127000000000010  0.8254000000000019  0.5000000000000000
  0.8338999999999999  0.1661000000000001  0.0000000000000000
  0.8338999999999999  0.6677999999999997  0.0000000000000000
  0.3322000000000003  0.1661000000000001  0.0000000000000000
  0.6647999999999996  0.8323999999999998  0.5000000000000000
  0.1676000000000002  0.8323999999999998  0.5000000000000000
  0.1676000000000002  0.3352000000000004  0.5000000000000000
